sat
(:added-eqs                       113
 :arith-eq-adapter                57
 :arith-bound-propagations-lp     4
 :arith-conflicts                 124
 :arith-diseq                     59
 :arith-fixed-eqs                 4
 :arith-gcd-calls                 3
 :arith-grobner-calls             23
 :arith-grobner-conflicts         5
 :arith-horner-calls              3
 :arith-horner-conflicts          1
 :arith-horner-cross-nested-forms 1076
 :arith-lower                     127
 :arith-make-feasible             174
 :arith-max-columns               237
 :arith-max-rows                  79
 :arith-nla-add-bounds            9
 :arith-nla-lemmas                63
 :arith-nla-propagate-bounds      53
 :arith-nla-propagate-eq          102
 :arith-nra-calls                 3
 :arith-offset-eqs                1
 :arith-patches                   3
 :arith-patches-success           3
 :arith-upper                     167
 :binary-propagations             79
 :conflicts                       16
 :decisions                       207
 :del-clause                      165
 :final-checks                    65
 :max-memory                      101.65
 :memory                          58.28
 :mk-bool-var                     470
 :mk-clause                       220
 :mk-clause-binary                447
 :nlsat-conflicts                 304
 :nlsat-decisions                 6
 :nlsat-propagations              3215
 :nlsat-stages                    1632
 :num-allocs                      202615016
 :num-checks                      1
 :propagations                    190
 :rlimit-count                    504859
 :sat-mk-clause-2ary              141189
 :sat-mk-clause-nary              188899
 :sat-mk-var                      95389
 :sls-arith-flips                 15581
 :sls-ddfw-flips                  4969.00
 :sls-ddfw-shifts                 30.00
 :sls-num-guided-search           5
 :sls-repair-down                 2574
 :sls-repair-up                   4318
 :time                            0.48
 :total-time                      0.49)
